c --- [ banner ] -------------------------------------------------------------
c 
c CaDiCaL Radically Simplified CDCL SAT Solver
c Copyright (c) 2016-2021 A. Biere, M. Fleury, N. Froleyks
c 
c Version 1.5.2 a5f15211db36c3956764e18194dd5bd63bf3b5e6
c g++ (GCC) 9.3.0 -Wall -Wextra -O3 -DNDEBUG
c Fri Oct 21 01:27:37 EDT 2022 Linux gra-login3 3.10.0-1160.66.1.el7.x86_64 x86_64
c 
c --- [ limit ] --------------------------------------------------------------
c 
c setting conflict limit to 200000 conflicts (due to '200000')
c 
c --- [ parsing input ] ------------------------------------------------------
c 
c reading DIMACS file from '33.cubes5301.adj'
c opening file to read '33.cubes5301.adj'
c found 'p cnf 6160 1595476' header
c parsed 1595476 clauses in 19.22 seconds process time
c closing file '33.cubes5301.adj'
c after reading 1457566783 bytes 1390.0 MB
c 
c --- [ options ] ------------------------------------------------------------
c 
c all options are set to their default value
c 
c --- [ solving ] ------------------------------------------------------------
c 
c time measured in process time since initialization
c 
c  seconds    reductions  redundant   irredundant
c          MB     restarts       trail       variables
c            level   conflicts       glue         remaining
c 
c * 19.22 1376  0 0   0    0    0  0% 0 1595422 2424 39%
c { 20.08 1420  0 0   0    0    0  0% 0 1595422 2424 39%
c i 20.82 1444 277 0   0   47   45 21% 2 1595422 2372 39%
c i 25.91 1509 114 0  34  203  164 24% 18 1595422 2366 38%
c i 26.12 1509 116 0  37  216  174 25% 21 1595422 2365 38%
c i 26.93 1512 110 0  44  246  200 25% 23 1595422 2364 38%
c i 27.15 1513 108 0  47  255  207 25% 23 1595422 2363 38%
c i 27.35 1513 106 0  48  264  214 25% 23 1595422 2362 38%
c - 32.55 1469 103 1  53  300  244 25% 21 371262 2362 38%
c i 33.38 1438 104 1  59  350  282 26% 25 371262 2361 38%
c i 33.56 1438 105 1  62  361  289 26% 27 371262 2360 38%
c i 33.57 1438 105 1  62  362  289 26% 27 371262 2335 38%
c i 33.69 1438 103 1  65  373  295 25% 27 371262 2319 38%
c i 33.71 1438 102 1  66  376  297 25% 27 371262 2318 38%
c i 33.71 1438 102 1  66  377  297 25% 27 371262 2317 38%
c i 33.94 1438 101 1  68  387  306 26% 27 371262 2316 38%
c i 34.22 1438 98 1  73  413  329 26% 27 371262 2315 38%
c i 34.49 1439 99 1  76  430  343 26% 27 371262 2314 38%
c i 34.60 1439 99 1  79  438  350 26% 27 371262 2313 38%
c i 34.64 1439 98 1  80  444  354 26% 27 371262 2312 38%
c 
c  seconds    reductions  redundant   irredundant
c          MB     restarts       trail       variables
c            level   conflicts       glue         remaining
c 
c i 35.25 1439 94 1  88  486  390 26% 27 371262 2311 38%
c i 36.32 1441 88 1  97  585  472 26% 27 371262 2310 38%
c i 36.83 1441 89 1  99  631  512 26% 27 371262 2309 37%
c i 36.83 1441 89 1  99  634  514 26% 27 371262 2308 37%
c i 36.96 1441 90 1 100  654  530 27% 28 371262 2307 37%
c i 36.97 1441 90 1 102  661  535 27% 28 371262 2306 37%
c i 36.99 1441 90 1 103  662  535 27% 28 371262 2305 37%
c i 38.01 1441 89 1 110  708  577 27% 28 371262 2304 37%
c i 38.56 1441 87 1 123  771  630 27% 29 371262 2297 37%
c i 38.93 1441 85 1 125  797  650 27% 29 371262 2296 37%
c i 39.21 1441 85 1 127  818  670 27% 29 371262 2295 37%
c i 39.28 1441 85 1 128  822  673 27% 29 371262 2294 37%
c i 40.18 1441 82 1 139  895  736 27% 29 371262 2293 37%
c i 40.35 1441 81 1 139  920  755 27% 29 371262 2292 37%
c i 40.40 1441 80 1 139  929  762 27% 29 371262 2291 37%
c i 40.42 1441 80 1 139  934  766 27% 29 371262 2290 37%
c i 40.42 1441 80 1 139  936  767 27% 29 371262 2289 37%
c i 40.42 1441 80 1 139  937  767 27% 28 371262 2288 37%
c i 40.48 1441 79 1 139  949  778 27% 28 371262 2287 37%
c i 40.78 1441 79 1 139  987  810 27% 28 371262 2286 37%
c 
c  seconds    reductions  redundant   irredundant
c          MB     restarts       trail       variables
c            level   conflicts       glue         remaining
c 
c i 40.89 1441 79 1 141  999  820 27% 29 371262 2285 37%
c } 40.92 1441 79 1 142 1007  825 27% 29 371262 2285 37%
c [ 40.92 1441  0 1 142 1007  825  0% 0 371262 2285 37%
c O 40.93 1441  3 1 142 1008  826 14% 2 371262 2285 37%
c i 41.23 1441 20 1 142 1057  868 33% 17 371262 2284 37%
c i 41.26 1441 22 1 142 1074  882 33% 18 371262 2283 37%
c i 41.27 1441 23 1 142 1084  891 33% 19 371262 2282 37%
c i 41.28 1441 23 1 142 1086  891 33% 19 371262 2281 37%
c i 41.29 1441 22 1 142 1104  907 32% 19 371262 2280 37%
c i 41.30 1441 23 1 142 1114  914 32% 19 371262 2279 37%
c i 41.30 1441 22 1 142 1115  914 32% 19 371262 2278 37%
c - 42.26 1588 26 2 142 1242  916 32% 22 342677 2278 37%
c i 42.65 1588 25 2 142 1596 1130 32% 21 342677 2277 37%
c i 42.68 1588 24 2 142 1700 1205 32% 21 342677 2276 37%
c i 42.85 1588 22 2 143 2215 1533 33% 20 342677 2275 37%
c - 43.33 1587 22 3 143 2626 1322 32% 19 342668 2275 37%
c ] 43.80 1502 21 3 143 3009 1559 55% 19 342668 2275 37%
c { 43.80 1502 79 3 143 3009 1559 73% 29 342668 2275 37%
c F 43.84 1502 79 3 144 3010 1560 73% 28 342668 2275 37%
c i 44.08 1502 77 3 144 3034 1582 73% 28 342668 2274 37%
c 
c  seconds    reductions  redundant   irredundant
c          MB     restarts       trail       variables
c            level   conflicts       glue         remaining
c 
c i 44.12 1502 76 3 144 3047 1594 72% 28 342668 2273 37%
c i 44.12 1502 76 3 144 3049 1595 72% 28 342668 2272 37%
c i 44.30 1502 73 3 144 3120 1652 71% 27 342668 2271 37%
c i 44.32 1502 73 3 144 3121 1652 71% 27 342668 2270 37%
c i 44.54 1502 69 3 144 3223 1729 69% 26 342668 2269 37%
c i 44.56 1502 68 3 144 3232 1735 68% 26 342668 2268 37%
c i 44.58 1502 68 3 144 3233 1735 68% 26 342668 2267 37%
c i 44.72 1502 68 3 144 3267 1764 68% 26 342668 2266 37%
c i 45.58 1502 70 3 167 3380 1860 66% 28 342668 2265 37%
c i 45.58 1502 70 3 167 3384 1863 66% 28 342668 2264 37%
c i 45.60 1502 70 3 168 3389 1864 66% 28 342668 2261 37%
c i 45.96 1502 71 3 176 3419 1890 65% 28 342668 2260 37%
c i 45.96 1502 71 3 176 3422 1891 65% 28 342668 2259 37%
c i 46.58 1502 70 3 185 3501 1947 64% 28 342668 2258 37%
c i 47.16 1502 64 3 185 3759 2144 61% 26 342668 2257 37%
c i 48.32 1502 63 3 235 4120 2465 59% 27 342668 2256 37%
c - 48.94 1358 57 4 235 4467 2060 58% 26 342611 2256 37%
c 3 50.32 1358 52 4 243 5001 3674 55% 25 342589 2245 36%
c 2 50.40 1358 52 4 243 5001 3831 55% 25 342589 2245 36%
c p 59.79 1358 52 4 243 5001 7127 55% 25 342589 2190 36%
c 
c  seconds    reductions  redundant   irredundant
c          MB     restarts       trail       variables
c            level   conflicts       glue         remaining
c 
c d 60.35 1358 52 4 243 5001 7066 55% 25 342431 2187 36%
c # 61.42 1358 45 4 243 6013 7686 54% 24 342431 2187 36%
c - 63.30 1359 41 5 249 6769 2701 53% 22 342431 2187 36%
c } 63.42 1359 40 5 249 7010 2878 53% 21 342431 2187 36%
c [ 63.42 1359 21 5 249 7010 2878 55% 19 342431 2187 36%
c - 65.21 1361 18 6 251 9533 3086 47% 15 342431 2187 36%
c I 65.48 1361 18 6 251 10014 3311 47% 15 342431 2187 36%
c - 74.77 1361 41 7 253 12755 4231 46% 31 342431 2187 36%
c 2 80.57 1361 48 7 254 15004 7630 46% 36 342431 2187 36%
c p 83.54 1361 48 7 254 15004 10956 46% 36 342431 2187 36%
c ] 83.77 1361 48 7 254 15010 10962 46% 36 342431 2187 36%
c { 83.77 1361 40 7 254 15010 10962 53% 21 342431 2187 36%
c B 83.99 1361 40 7 254 15017 10969 53% 21 342431 2187 36%
c - 89.63 1361 37 8 308 16438 5379 51% 20 342431 2187 36%
c s 100.55 1361 36 8 534 18725 7022 50% 21 340229 2187 36%
c v 107.54 1361 36 8 534 18725 7022 50% 21 340215 2187 36%
c t 107.72 1361 36 8 534 18725 7013 50% 21 340206 2187 36%
c e 109.01 1364 36 8 534 18725 6747 50% 21 338084 978 16%
c s 109.15 1364 36 8 534 18725 6747 50% 21 337795 978 16%
c - 113.68 1364 33 9 569 20583 5903 67% 20 337795 978 16%
c 
c  seconds     reductions   redundant   irredundant
c           MB     restarts        trail       variables
c             level    conflicts       glue        remaining
c 
c W 114.11 1364 33 9 575 21018 6230 67% 20 337795 978 16%
c - 117.37 1364 30 10 683 25170 5810 68% 19 337795 978 16%
c F 125.79 1364 30 10 864 28019 7941 67% 20 337795 978 16%
c p 133.26 1364 30 10 1009 30008 12388 67% 20 337795 978 16%
c - 134.15 1364 30 11 1014 30215 6891 67% 20 337795 978 16%
c } 134.89 1364 30 11 1030 31010 7419 67% 20 337795 978 16%
c [ 134.89 1364 48 11 1030 31010 7419 107% 36 337795 978 16%
c - 138.01 1364 40 12 1033 35718 6985 93% 31 337795 978 16%
c B 138.21 1364 39 12 1033 36022 7204 92% 30 337795 978 16%
c - 140.19 1364 36 13 1036 41684 7802 84% 29 337795 978 16%
c ] 140.65 1364 35 13 1037 43256 8886 82% 28 337795 978 16%
c 1 140.65 1364 35 13 1037 43256 8886 82% 28 337795 978 16%
c 
c --- [ writing output ] -----------------------------------------------------
c 
c writing simplified CNF to DIMACS file 'simp/33.cubes5301.adj.simp1'
c * 140.65 1364 35 13 1037 43256 8886 82% 28 337795 978 16%
c opening file to write 'simp/33.cubes5301.adj.simp1'
c writing 'p cnf 6160 337795' header
c closing file 'simp/33.cubes5301.adj.simp1'
c after writing 149915567 bytes 143.0 MB
c wrote 337795 clauses in 1.10 seconds process time
c 
c --- [ writing extension ] --------------------------------------------------
c 
c writing extension stack to 'simp/33.cubes5301.adj.ext1'
c opening file to write 'simp/33.cubes5301.adj.ext1'
c closing file 'simp/33.cubes5301.adj.ext1'
c after writing 80323 bytes 0.1 MB
c wrote 3623 witnesses in 0.00 seconds process time
c 
c --- [ result ] -------------------------------------------------------------
c 
s SATISFIABLE
c 
c --- [ run-time profiling ] -------------------------------------------------
c 
c process time taken by individual solving procedures
c (percentage relative to process time for solving)
c 
c        94.95   78.19% search
c        67.94   55.95% unstable
c        26.49   21.81% simplify
c        25.91   21.33% stable
c        19.22   15.82% parse
c        15.17   12.50% probe
c         7.13    5.87% vivify
c         2.44    2.01% elim
c         0.86    0.71% lucky
c         0.26    0.21% subsume
c         0.24    0.20% walk
c         0.16    0.13% ternary
c   =================================
c       121.44   85.67% solve
c 
c last line shows process time for solving
c (percentage relative to total process time)
c 
c --- [ statistics ] ---------------------------------------------------------
c 
c chronological:              8478        19.60 %  of conflicts
c conflicts:                 43256       356.21    per second
c decisions:                108490       893.40    per second
c eliminated:                 1209        19.63 %  of all variables
c fixed:                       815        13.23 %  of all variables
c learned:                   42263        97.70 %  per conflict
c learned_lits:            7306833       100.00 %  learned literals
c minimized:                     0         0.00 %  learned literals
c shrunken:                4414299        60.41 %  learned literals
c minishrunken:             634232         8.68 %  learned literals
c propagations:            4518671         0.04 M  per second
c reduced:                   21802        50.40 %  per conflict
c rephased:                      8      5407.00    interval
c restarts:                   1037        41.71    interval
c stabilizing:                   3        51.43 %  of conflicts
c substituted:                  14         0.23 %  of all variables
c subsumed:                  13766         0.38 %  of all clauses
c strengthened:               5846         0.16 %  of all clauses
c ternary:                    3472         0.67 %  of resolved
c vivified:                     24         0.00 %  of all clauses
c walked:                        1     43256.00    interval
c weakened:                   2808         3.03    average size
c 
c seconds are measured in process time for solving
c 
c --- [ resources ] ----------------------------------------------------------
c 
c total process time since initialization:       141.75    seconds
c total real time since initialization:          142.42    seconds
c maximum resident set size of process:         1734.30    MB
c 
c --- [ shutting down ] ------------------------------------------------------
c 
c exit 10
WARNING! DIMACS header mismatch: wrong number of variables.
============================[ Problem Statistics ]=============================
|                                                                             |
|  Number of variables:          3760                                         |
|  Number of clauses:          337795                                         |
|  Parse time:                   2.03 s                                       |
|  Simplification time:          0.08 s                                       |
|                                                                             |
============================[ Search Statistics ]====================================================
| Conflicts |          ORIGINAL         |          LEARNT          | Num Sols |      SUBGRAPHS      |
|           |    Vars  Clauses Literals |    Limit  Clauses Lit/Cl |          | Canonical Noncanon. |
=====================================================================================================
|       106 |    3668   337801 32608753 |     2000      106    136 |        0 |        18         6 |
|       262 |    3668   337807 32608996 |     2000      262    112 |        0 |        26        12 |
|       504 |    3668   337824 32609252 |     2000      504    107 |        0 |        37        29 |
|       842 |    3668   337825 32609316 |     2000      842    102 |        0 |        48        30 |
|      1350 |    3668   337827 32609437 |     2000     1350     99 |        0 |        62        32 |
|      2123 |    3668   337841 32609764 |     3610     1133     67 |        0 |        71        46 |
|      3576 |    3668   338155 32616604 |     3610     2586     80 |        0 |       176       360 |
|      5424 |    3668   338295 32619209 |     5005     2629     61 |        0 |       242       500 |
|      8290 |    3668   338599 32625183 |     6305     2995     50 |        0 |       317       804 |
|     12281 |    3668   338746 32628137 |     7555     3836     49 |        0 |       430       951 |
|     18204 |    3668   338903 32631493 |     8778     5982     53 |        0 |       534      1108 |
|     27038 |    3668   339088 32635027 |    11207     5445     38 |        0 |       664      1293 |
|     40576 |    3668   339652 32647643 |    13609     7185     40 |        0 |       843      1857 |
|     60751 |    3668   340366 32660323 |    16006    13157     59 |        0 |      1033      2571 |
|     95173 |    3668   345596 32737464 |    20812    11985     38 |        0 |      1675      7801 |
|    140140 |    3668   346774 32759617 |    24406    23946     63 |        0 |      2205      8979 |
|    206498 |    3668   347448 32771492 |    30408    23306     53 |        0 |      2631      9653 |
|    307369 |    3668   349793 32816010 |    37614    23983     46 |        0 |      3403     11998 |
|    457637 |    3668   352272 32861513 |    46028    30065     45 |        0 |      4203     14477 |
|    687898 |    3668   360850 33015006 |    56815    31713     39 |        0 |      7133     23055 |
|   1032978 |    3668   373405 33242665 |    68822    65800     69 |        0 |      9775     35610 |
|   1537631 |    3668   379270 33359483 |    84412    76443     59 |        0 |     11940     41475 |
|   2290543 |    3668   384000 33475075 |   103616    82159     51 |        0 |     13695     46205 |
|   3422779 |    3664   386451 33548832 |   127588    64367     46 |        3 |     17970     56164 |
|   5116897 |    3605   217172 18685459 |   115942   100039     81 |        3 |     22317     66871 |
=====================================================================================================
Number of solutions   : 3
Canonical subgraphs   : 23277          (13 /sec)
          order  3    : 1              (166667 /sec)
          order  4    : 1              (500000 /sec)
          order  5    : 1              (200000 /sec)
          order  6    : 1              (55556 /sec)
          order  7    : 1              (9009 /sec)
          order  8    : 2              (1360 /sec)
          order  9    : 6              (315 /sec)
          order 10    : 20             (86 /sec)
          order 11    : 74             (23 /sec)
          order 12    : 280            (9 /sec)
          order 13    : 1353           (8 /sec)
          order 14    : 7667           (14 /sec)
          order 15    : 10686          (13 /sec)
          order 16    : 1320           (19 /sec)
          order 17    : 883            (16 /sec)
          order 18    : 294            (12 /sec)
          order 19    : 178            (11 /sec)
          order 20    : 243            (10 /sec)
          order 21    : 263            (10 /sec)
          order 22    : 3              (0 /sec)
Noncanonical subgraphs: 68649          (348 /sec)
          order  3    : 0              (-nan /sec)
          order  4    : 0              (-nan /sec)
          order  5    : 0              (-nan /sec)
          order  6    : 0              (-nan /sec)
          order  7    : 0              (-nan /sec)
          order  8    : 0              (-nan /sec)
          order  9    : 0              (-nan /sec)
          order 10    : 0              (-nan /sec)
          order 11    : 0              (-nan /sec)
          order 12    : 0              (-nan /sec)
          order 13    : 5512           (2697 /sec)
          order 14    : 31452          (1018 /sec)
          order 15    : 18721          (750 /sec)
          order 16    : 12444          (119 /sec)
          order 17    : 127            (76 /sec)
          order 18    : 82             (56 /sec)
          order 19    : 1              (8403 /sec)
          order 20    : 0              (-nan /sec)
          order 21    : 0              (-nan /sec)
Canonicity checking   : 1816.56 s
Noncanonicity checking: 197.053 s
Total canonicity time : 2013.62 s
database reductions   : 132
restarts              : 8688
conflicts             : 5511880        (1229 /sec)
decisions             : 6782806        (0.00 % random) (1513 /sec)
propagations          : 292267454      (65176 /sec)
conflict literals     : 532639474      (58.18 % deleted)
actual reward         : 0.231825
Memory used           : 481.00 MB
CPU time              : 4484.3 s

UNSATISFIABLE
